sat
(
  (define-fun T () String
    "")
  (define-fun J () String
    "")
  (define-fun G () String
    "")
  (define-fun O () String
    "")
  (define-fun F () String
    "a")
  (define-fun M () String
    "a")
  (define-fun L () String
    "aa")
  (define-fun V () String
    "aa")
  (define-fun R () String
    "")
)
